0 44913278
1 44913278
2 44907346
3 44902490
4 44902490
5 44888076
6 44888076
7 44888076
8 44888076
9 44888076
10 44888076
11 44888076
12 44884666
13 44884666
14 44884666
15 44884666
16 44864558
17 44864558
18 44864558
19 44864558
20 44864558
21 44864558
22 44864558
23 44864558
24 44864558
25 44864558
26 44864558
27 44864558
28 44864558
29 44864558
30 44864558
31 44864558
32 44864558
33 44864558
34 44864558
35 44864558
36 44864558
37 44864558
38 44864558
39 44864558
40 44864558
41 44864558
42 44864558
43 44864558
44 44864558
45 44864558
46 44864558
47 44864558
48 44864558
49 44864558
50 44864558
51 44864558
52 44864558
53 44863390
54 44863390
55 44863390
56 44863390
57 44861586
58 44861586
59 44861586
60 44861586
61 44861586
62 44861586
63 44861586
64 44861586
65 44861586
66 44861586
67 44861586
68 44861586
69 44861586
70 44861102
71 44861102
72 44861102
73 44861102
74 44861102
75 44861102
76 44861102
77 44861102
78 44861102
79 44861102
80 44861102
81 44861102
82 44861102
83 44861102
84 44861102
85 44861102
86 44846628
87 44846628
88 44846628
89 44846628
90 44846628
91 44846628
92 44846628
93 44846628
94 44846628
95 44846628
96 44846628
97 44846628
98 44846628
99 44846628
